(set-info :smt-lib-version 2.6)
(set-logic QF_NIA)
(set-info :source |
Generated by: Cristina Borralleras, Daniel Larraz, Albert Oliveras, Enric Rodriguez-Carbonell, Albert Rubio
Generated on: 2017-04-27
Generator: VeryMax
Application: Termination proving
Target solver: barcelogic
|)
(set-info :license "https://creativecommons.org/licenses/by/4.0/")
(set-info :category "industrial")
(set-info :status unsat)
(declare-fun Nl2main_x1 () Int)
(declare-fun Nl2main_y1 () Int)
(declare-fun Nl2main_tmp1 () Int)
(declare-fun Nl2main_xtmp1 () Int)
(declare-fun Nl12main_x1 () Int)
(declare-fun Nl12main_y1 () Int)
(declare-fun Nl12main_tmp1 () Int)
(declare-fun Nl12main_xtmp1 () Int)
(declare-fun lam0n0 () Int)
(declare-fun lam0n1 () Int)
(declare-fun lam0n2 () Int)
(declare-fun lam0n3 () Int)
(declare-fun Nl2CT1 () Int)
(declare-fun lam1n0 () Int)
(declare-fun lam1n1 () Int)
(declare-fun lam1n2 () Int)
(declare-fun lam1n3 () Int)
(declare-fun lam2n0 () Int)
(declare-fun lam2n1 () Int)
(declare-fun lam2n2 () Int)
(declare-fun lam2n3 () Int)
(declare-fun lam3n0 () Int)
(declare-fun lam3n1 () Int)
(declare-fun lam3n2 () Int)
(declare-fun lam3n3 () Int)
(declare-fun lam4n0 () Int)
(declare-fun lam4n1 () Int)
(declare-fun lam4n2 () Int)
(declare-fun lam4n3 () Int)
(declare-fun lam5n0 () Int)
(declare-fun lam5n1 () Int)
(declare-fun lam5n2 () Int)
(declare-fun lam5n3 () Int)
(declare-fun lam6n0 () Int)
(declare-fun lam6n1 () Int)
(declare-fun lam6n2 () Int)
(declare-fun lam6n3 () Int)
(declare-fun lam6n4 () Int)
(declare-fun lam7n0 () Int)
(declare-fun lam7n1 () Int)
(declare-fun lam7n2 () Int)
(declare-fun lam7n3 () Int)
(declare-fun lam7n4 () Int)
(declare-fun lam8n0 () Int)
(declare-fun lam8n1 () Int)
(declare-fun lam8n2 () Int)
(declare-fun lam8n3 () Int)
(declare-fun lam9n0 () Int)
(declare-fun lam9n1 () Int)
(declare-fun lam9n2 () Int)
(declare-fun lam9n3 () Int)
(declare-fun lam10n0 () Int)
(declare-fun lam10n1 () Int)
(declare-fun lam10n2 () Int)
(declare-fun lam10n4 () Int)
(declare-fun lam10n3 () Int)
(declare-fun lam11n0 () Int)
(declare-fun lam11n1 () Int)
(declare-fun lam11n2 () Int)
(declare-fun lam11n4 () Int)
(declare-fun lam11n3 () Int)
(declare-fun lam12n0 () Int)
(declare-fun lam12n1 () Int)
(declare-fun lam12n2 () Int)
(declare-fun lam12n3 () Int)
(declare-fun lam12n4 () Int)
(declare-fun lam13n0 () Int)
(declare-fun lam13n1 () Int)
(declare-fun lam13n2 () Int)
(declare-fun lam13n3 () Int)
(declare-fun lam13n4 () Int)
(declare-fun Nl12CT1 () Int)
(declare-fun lam14n0 () Int)
(declare-fun lam14n1 () Int)
(declare-fun lam14n2 () Int)
(declare-fun lam14n3 () Int)
(declare-fun lam14n4 () Int)
(declare-fun lam15n0 () Int)
(declare-fun lam15n1 () Int)
(declare-fun lam15n2 () Int)
(declare-fun lam15n3 () Int)
(declare-fun lam15n4 () Int)
(declare-fun lam16n0 () Int)
(declare-fun lam16n1 () Int)
(declare-fun lam16n2 () Int)
(declare-fun lam17n0 () Int)
(declare-fun lam17n1 () Int)
(declare-fun lam17n2 () Int)
(declare-fun lam18n0 () Int)
(declare-fun lam18n1 () Int)
(declare-fun lam18n2 () Int)
(declare-fun lam19n0 () Int)
(declare-fun lam19n1 () Int)
(declare-fun lam19n2 () Int)
(declare-fun lam22n0 () Int)
(declare-fun lam22n1 () Int)
(declare-fun lam22n2 () Int)
(declare-fun lam22n3 () Int)
(declare-fun RFN1_CT () Int)
(declare-fun RFN1_main_x () Int)
(declare-fun RFN1_main_y () Int)
(declare-fun RFN1_main_tmp () Int)
(declare-fun RFN1_main_xtmp () Int)
(declare-fun lam25n0 () Int)
(declare-fun lam25n1 () Int)
(declare-fun lam25n2 () Int)
(declare-fun lam25n3 () Int)
(declare-fun lam28n0 () Int)
(declare-fun lam28n1 () Int)
(declare-fun lam28n2 () Int)
(declare-fun lam28n3 () Int)
(declare-fun lam31n0 () Int)
(declare-fun lam31n1 () Int)
(declare-fun lam31n2 () Int)
(declare-fun lam31n3 () Int)
(declare-fun lam31n4 () Int)
(declare-fun lam34n0 () Int)
(declare-fun lam34n1 () Int)
(declare-fun lam34n2 () Int)
(declare-fun lam34n3 () Int)
(declare-fun lam37n0 () Int)
(declare-fun lam37n1 () Int)
(declare-fun lam37n2 () Int)
(declare-fun lam37n4 () Int)
(declare-fun lam37n3 () Int)
(declare-fun lam40n0 () Int)
(declare-fun lam40n1 () Int)
(declare-fun lam40n2 () Int)
(declare-fun lam40n3 () Int)
(declare-fun lam40n4 () Int)
(declare-fun lam43n0 () Int)
(declare-fun lam43n1 () Int)
(declare-fun lam43n2 () Int)
(declare-fun lam43n3 () Int)
(declare-fun lam43n4 () Int)
(declare-fun lam46n0 () Int)
(declare-fun lam46n1 () Int)
(declare-fun lam46n2 () Int)
(declare-fun lam49n0 () Int)
(declare-fun lam49n1 () Int)
(declare-fun lam49n2 () Int)
(declare-fun lam23n0 () Int)
(declare-fun lam23n1 () Int)
(declare-fun lam23n2 () Int)
(declare-fun lam23n3 () Int)
(declare-fun lam24n0 () Int)
(declare-fun lam24n1 () Int)
(declare-fun lam24n2 () Int)
(declare-fun lam24n3 () Int)
(declare-fun lam50n0 () Int)
(declare-fun lam50n1 () Int)
(declare-fun lam50n2 () Int)
(declare-fun lam50n3 () Int)
(assert ( and ( <= ( - 1 ) Nl2main_x1 ) ( <= Nl2main_x1 1 ) ( <= ( - 1 ) Nl2main_y1 ) ( <= Nl2main_y1 1 ) ( <= ( - 1 ) Nl2main_tmp1 ) ( <= Nl2main_tmp1 1 ) ( <= ( - 1 ) Nl2main_xtmp1 ) ( <= Nl2main_xtmp1 1 ) ( <= ( - 1 ) Nl12main_x1 ) ( <= Nl12main_x1 1 ) ( <= ( - 1 ) Nl12main_y1 ) ( <= Nl12main_y1 1 ) ( <= ( - 1 ) Nl12main_tmp1 ) ( <= Nl12main_tmp1 1 ) ( <= ( - 1 ) Nl12main_xtmp1 ) ( <= Nl12main_xtmp1 1 ) ))
(assert ( or ( and ( >= lam0n0 0 ) ( >= lam0n1 0 ) ( >= lam0n2 0 ) ( >= lam0n3 0 ) ( > ( + ( * 1 lam0n1 ) ( * 1 lam0n2 ) ( * Nl2CT1 lam0n3 ) ( - 1 ) ) 0 ) ( = ( + ( * 1 lam0n0 ) ( * 1 lam0n1 ) ( * Nl2main_x1 lam0n3 ) ) 0 ) ( = ( + ( * 1 lam0n1 ) ( * 1 lam0n2 ) ( * Nl2main_y1 lam0n3 ) ) 0 ) ( = ( * Nl2main_tmp1 lam0n3 ) 0 ) ( = ( * Nl2main_xtmp1 lam0n3 ) 0 ) ) ( and ( >= lam1n0 0 ) ( >= lam1n1 0 ) ( >= lam1n2 0 ) ( >= lam1n3 0 ) ( > ( + ( * 1 lam1n1 ) ( * 1 lam1n2 ) ( * Nl2CT1 lam1n3 ) ( - 1 ( + ( + ( + ( + Nl2CT1 ( * Nl2main_x1 0 ) ) ( * Nl2main_y1 0 ) ) ( * Nl2main_tmp1 0 ) ) ( * Nl2main_xtmp1 0 ) ) ) ) 0 ) ( = ( + ( * 1 lam1n0 ) ( * 1 lam1n1 ) ( * Nl2main_x1 lam1n3 ) ( - ( + ( + 0 ( * Nl2main_y1 1 ) ) ( * Nl2main_xtmp1 1 ) ) ) ) 0 ) ( = ( + ( * 1 lam1n1 ) ( * 1 lam1n2 ) ( * Nl2main_y1 lam1n3 ) ( - ( + ( + 0 ( * Nl2main_x1 1 ) ) ( * Nl2main_tmp1 1 ) ) ) ) 0 ) ( = ( * Nl2main_tmp1 lam1n3 ) 0 ) ( = ( * Nl2main_xtmp1 lam1n3 ) 0 ) ) ))
(assert ( or ( and ( >= lam2n0 0 ) ( >= lam2n1 0 ) ( >= lam2n2 0 ) ( >= lam2n3 0 ) ( > ( + ( * 1 lam2n1 ) ( * 1 lam2n2 ) ( * Nl2CT1 lam2n3 ) ( - 1 ) ) 0 ) ( = ( + ( * ( - 1 ) lam2n0 ) ( * ( - 1 ) lam2n1 ) ( * Nl2main_x1 lam2n3 ) ) 0 ) ( = ( + ( * ( - 1 ) lam2n0 ) ( * 1 lam2n2 ) ( * Nl2main_y1 lam2n3 ) ) 0 ) ( = ( * Nl2main_tmp1 lam2n3 ) 0 ) ( = ( * Nl2main_xtmp1 lam2n3 ) 0 ) ) ( and ( >= lam3n0 0 ) ( >= lam3n1 0 ) ( >= lam3n2 0 ) ( >= lam3n3 0 ) ( > ( + ( * 1 lam3n1 ) ( * 1 lam3n2 ) ( * Nl2CT1 lam3n3 ) ( - 1 ( + ( + ( + ( + Nl2CT1 ( * Nl2main_x1 0 ) ) ( * Nl2main_y1 0 ) ) ( * Nl2main_tmp1 0 ) ) ( * Nl2main_xtmp1 0 ) ) ) ) 0 ) ( = ( + ( * ( - 1 ) lam3n0 ) ( * ( - 1 ) lam3n1 ) ( * Nl2main_x1 lam3n3 ) ( - ( + ( + 0 ( * Nl2main_y1 1 ) ) ( * Nl2main_xtmp1 1 ) ) ) ) 0 ) ( = ( + ( * ( - 1 ) lam3n0 ) ( * 1 lam3n2 ) ( * Nl2main_y1 lam3n3 ) ( - ( + ( + 0 ( * Nl2main_x1 1 ) ) ( * Nl2main_tmp1 1 ) ) ) ) 0 ) ( = ( * Nl2main_tmp1 lam3n3 ) 0 ) ( = ( * Nl2main_xtmp1 lam3n3 ) 0 ) ) ))
(assert ( or ( and ( >= lam4n0 0 ) ( >= lam4n1 0 ) ( >= lam4n2 0 ) ( >= lam4n3 0 ) ( > ( + ( * 1 lam4n0 ) ( * 1 lam4n1 ) ( * 1 lam4n2 ) ( * Nl2CT1 lam4n3 ) ( - 1 ) ) 0 ) ( = ( + ( * 1 lam4n0 ) ( * ( - 1 ) lam4n1 ) ( * Nl2main_x1 lam4n3 ) ) 0 ) ( = ( + ( * 1 lam4n0 ) ( * 1 lam4n2 ) ( * Nl2main_y1 lam4n3 ) ) 0 ) ( = ( * Nl2main_tmp1 lam4n3 ) 0 ) ( = ( * Nl2main_xtmp1 lam4n3 ) 0 ) ) ( and ( >= lam5n0 0 ) ( >= lam5n1 0 ) ( >= lam5n2 0 ) ( >= lam5n3 0 ) ( > ( + ( * 1 lam5n0 ) ( * 1 lam5n1 ) ( * 1 lam5n2 ) ( * Nl2CT1 lam5n3 ) ( - 1 ( + ( + ( + ( + Nl2CT1 ( * Nl2main_x1 0 ) ) ( * Nl2main_y1 0 ) ) ( * Nl2main_tmp1 0 ) ) ( * Nl2main_xtmp1 0 ) ) ) ) 0 ) ( = ( + ( * 1 lam5n0 ) ( * ( - 1 ) lam5n1 ) ( * Nl2main_x1 lam5n3 ) ( - ( + ( + 0 ( * Nl2main_y1 1 ) ) ( * Nl2main_xtmp1 1 ) ) ) ) 0 ) ( = ( + ( * 1 lam5n0 ) ( * 1 lam5n2 ) ( * Nl2main_y1 lam5n3 ) ( - ( + ( + 0 ( * Nl2main_x1 1 ) ) ( * Nl2main_tmp1 1 ) ) ) ) 0 ) ( = ( * Nl2main_tmp1 lam5n3 ) 0 ) ( = ( * Nl2main_xtmp1 lam5n3 ) 0 ) ) ))
(assert ( or ( and ( >= lam6n0 0 ) ( >= lam6n1 0 ) ( >= lam6n2 0 ) ( >= lam6n3 0 ) ( >= lam6n4 0 ) ( > ( + ( * 1 lam6n3 ) ( * Nl2CT1 lam6n4 ) ( - 1 ) ) 0 ) ( = ( + ( * 1 lam6n0 ) ( * 1 lam6n1 ) ( * ( - 1 ) lam6n2 ) ( * Nl2main_x1 lam6n4 ) ) 0 ) ( = ( + ( * ( - 1 ) lam6n1 ) ( * ( - 1 ) lam6n2 ) ( * ( - 1 ) lam6n3 ) ( * Nl2main_y1 lam6n4 ) ) 0 ) ( = ( * Nl2main_tmp1 lam6n4 ) 0 ) ( = ( * Nl2main_xtmp1 lam6n4 ) 0 ) ) ( and ( >= lam7n0 0 ) ( >= lam7n1 0 ) ( >= lam7n2 0 ) ( >= lam7n3 0 ) ( >= lam7n4 0 ) ( > ( + ( * 1 lam7n3 ) ( * Nl2CT1 lam7n4 ) ( - 1 ( + ( + ( + ( + Nl2CT1 ( * Nl2main_x1 0 ) ) ( * Nl2main_y1 0 ) ) ( * Nl2main_tmp1 0 ) ) ( * Nl2main_xtmp1 0 ) ) ) ) 0 ) ( = ( + ( * 1 lam7n0 ) ( * 1 lam7n1 ) ( * ( - 1 ) lam7n2 ) ( * Nl2main_x1 lam7n4 ) ( - ( + ( + 0 ( * Nl2main_y1 1 ) ) ( * Nl2main_xtmp1 1 ) ) ) ) 0 ) ( = ( + ( * ( - 1 ) lam7n1 ) ( * ( - 1 ) lam7n2 ) ( * ( - 1 ) lam7n3 ) ( * Nl2main_y1 lam7n4 ) ( - ( + ( + 0 ( * Nl2main_x1 1 ) ) ( * Nl2main_tmp1 1 ) ) ) ) 0 ) ( = ( * Nl2main_tmp1 lam7n4 ) 0 ) ( = ( * Nl2main_xtmp1 lam7n4 ) 0 ) ) ))
(assert ( or ( and ( >= lam8n0 0 ) ( >= lam8n1 0 ) ( >= lam8n2 0 ) ( >= lam8n3 0 ) ( > ( + ( * 1 lam8n1 ) ( * 1 lam8n2 ) ( * Nl2CT1 lam8n3 ) ( - 1 ) ) 0 ) ( = ( + ( * 1 lam8n0 ) ( * 1 lam8n1 ) ( * Nl2main_x1 lam8n3 ) ) 0 ) ( = ( + ( * 1 lam8n1 ) ( * ( - 1 ) lam8n2 ) ( * Nl2main_y1 lam8n3 ) ) 0 ) ( = ( * Nl2main_tmp1 lam8n3 ) 0 ) ( = ( * Nl2main_xtmp1 lam8n3 ) 0 ) ) ( and ( >= lam9n0 0 ) ( >= lam9n1 0 ) ( >= lam9n2 0 ) ( >= lam9n3 0 ) ( > ( + ( * 1 lam9n1 ) ( * 1 lam9n2 ) ( * Nl2CT1 lam9n3 ) ( - 1 ( + ( + ( + ( + Nl2CT1 ( * Nl2main_x1 0 ) ) ( * Nl2main_y1 0 ) ) ( * Nl2main_tmp1 0 ) ) ( * Nl2main_xtmp1 0 ) ) ) ) 0 ) ( = ( + ( * 1 lam9n0 ) ( * 1 lam9n1 ) ( * Nl2main_x1 lam9n3 ) ( - ( + ( + 0 ( * Nl2main_y1 1 ) ) ( * Nl2main_xtmp1 1 ) ) ) ) 0 ) ( = ( + ( * 1 lam9n1 ) ( * ( - 1 ) lam9n2 ) ( * Nl2main_y1 lam9n3 ) ( - ( + ( + 0 ( * Nl2main_x1 1 ) ) ( * Nl2main_tmp1 1 ) ) ) ) 0 ) ( = ( * Nl2main_tmp1 lam9n3 ) 0 ) ( = ( * Nl2main_xtmp1 lam9n3 ) 0 ) ) ))
(assert ( or ( and ( >= lam10n0 0 ) ( >= lam10n1 0 ) ( >= lam10n2 0 ) ( >= lam10n4 0 ) ( > ( + ( * 1 lam10n1 ) ( * 1 lam10n2 ) ( * Nl2CT1 lam10n4 ) ( - 1 ) ) 0 ) ( = ( + ( * ( - 1 ) lam10n0 ) ( * ( - 1 ) lam10n1 ) ( * 1 lam10n3 ) ( * Nl2main_x1 lam10n4 ) ) 0 ) ( = ( + ( * ( - 1 ) lam10n0 ) ( * ( - 1 ) lam10n2 ) ( * ( - 1 ) lam10n3 ) ( * Nl2main_y1 lam10n4 ) ) 0 ) ( = ( * Nl2main_tmp1 lam10n4 ) 0 ) ( = ( * Nl2main_xtmp1 lam10n4 ) 0 ) ) ( and ( >= lam11n0 0 ) ( >= lam11n1 0 ) ( >= lam11n2 0 ) ( >= lam11n4 0 ) ( > ( + ( * 1 lam11n1 ) ( * 1 lam11n2 ) ( * Nl2CT1 lam11n4 ) ( - 1 ( + ( + ( + ( + Nl2CT1 ( * Nl2main_x1 0 ) ) ( * Nl2main_y1 0 ) ) ( * Nl2main_tmp1 0 ) ) ( * Nl2main_xtmp1 0 ) ) ) ) 0 ) ( = ( + ( * ( - 1 ) lam11n0 ) ( * ( - 1 ) lam11n1 ) ( * 1 lam11n3 ) ( * Nl2main_x1 lam11n4 ) ( - ( + ( + 0 ( * Nl2main_y1 1 ) ) ( * Nl2main_xtmp1 1 ) ) ) ) 0 ) ( = ( + ( * ( - 1 ) lam11n0 ) ( * ( - 1 ) lam11n2 ) ( * ( - 1 ) lam11n3 ) ( * Nl2main_y1 lam11n4 ) ( - ( + ( + 0 ( * Nl2main_x1 1 ) ) ( * Nl2main_tmp1 1 ) ) ) ) 0 ) ( = ( * Nl2main_tmp1 lam11n4 ) 0 ) ( = ( * Nl2main_xtmp1 lam11n4 ) 0 ) ) ))
(assert ( or ( and ( >= lam12n0 0 ) ( >= lam12n1 0 ) ( >= lam12n2 0 ) ( >= lam12n3 0 ) ( >= lam12n4 0 ) ( > ( + ( * 1 lam12n1 ) ( * 1 lam12n2 ) ( * 1 lam12n3 ) ( * Nl2CT1 lam12n4 ) ( - 1 ) ) 0 ) ( = ( + ( * ( - 1 ) lam12n0 ) ( * 1 lam12n1 ) ( * ( - 1 ) lam12n2 ) ( * Nl2main_x1 lam12n4 ) ) 0 ) ( = ( + ( * ( - 1 ) lam12n0 ) ( * ( - 1 ) lam12n1 ) ( * ( - 1 ) lam12n3 ) ( * Nl2main_y1 lam12n4 ) ) 0 ) ( = ( * Nl2main_tmp1 lam12n4 ) 0 ) ( = ( * Nl2main_xtmp1 lam12n4 ) 0 ) ) ( and ( >= lam13n0 0 ) ( >= lam13n1 0 ) ( >= lam13n2 0 ) ( >= lam13n3 0 ) ( >= lam13n4 0 ) ( > ( + ( * 1 lam13n1 ) ( * 1 lam13n2 ) ( * 1 lam13n3 ) ( * Nl2CT1 lam13n4 ) ( - 1 ( + ( + Nl12CT1 ( * Nl12main_tmp1 0 ) ) ( * Nl12main_xtmp1 0 ) ) ) ) 0 ) ( = ( + ( * ( - 1 ) lam13n0 ) ( * 1 lam13n1 ) ( * ( - 1 ) lam13n2 ) ( * Nl2main_x1 lam13n4 ) ( - ( + ( + 0 Nl12main_x1 ) ( * Nl12main_xtmp1 1 ) ) ) ) 0 ) ( = ( + ( * ( - 1 ) lam13n0 ) ( * ( - 1 ) lam13n1 ) ( * ( - 1 ) lam13n3 ) ( * Nl2main_y1 lam13n4 ) ( - ( + ( + 0 Nl12main_y1 ) ( * Nl12main_tmp1 1 ) ) ) ) 0 ) ( = ( * Nl2main_tmp1 lam13n4 ) 0 ) ( = ( * Nl2main_xtmp1 lam13n4 ) 0 ) ) ))
(assert ( or ( and ( >= lam14n0 0 ) ( >= lam14n1 0 ) ( >= lam14n2 0 ) ( >= lam14n3 0 ) ( >= lam14n4 0 ) ( > ( + ( * 1 lam14n0 ) ( * 1 lam14n1 ) ( * 1 lam14n2 ) ( * 2 lam14n3 ) ( * Nl2CT1 lam14n4 ) ( - 1 ) ) 0 ) ( = ( + ( * ( - 1 ) lam14n0 ) ( * ( - 1 ) lam14n1 ) ( * ( - 1 ) lam14n3 ) ( * Nl2main_x1 lam14n4 ) ) 0 ) ( = ( + ( * 1 lam14n1 ) ( * ( - 1 ) lam14n2 ) ( * ( - 1 ) lam14n3 ) ( * Nl2main_y1 lam14n4 ) ) 0 ) ( = ( * Nl2main_tmp1 lam14n4 ) 0 ) ( = ( * Nl2main_xtmp1 lam14n4 ) 0 ) ) ( and ( >= lam15n0 0 ) ( >= lam15n1 0 ) ( >= lam15n2 0 ) ( >= lam15n3 0 ) ( >= lam15n4 0 ) ( > ( + ( * 1 lam15n0 ) ( * 1 lam15n1 ) ( * 1 lam15n2 ) ( * 2 lam15n3 ) ( * Nl2CT1 lam15n4 ) ( - 1 ( + ( + Nl12CT1 ( * Nl12main_tmp1 0 ) ) ( * Nl12main_xtmp1 0 ) ) ) ) 0 ) ( = ( + ( * ( - 1 ) lam15n0 ) ( * ( - 1 ) lam15n1 ) ( * ( - 1 ) lam15n3 ) ( * Nl2main_x1 lam15n4 ) ( - ( + ( + 0 Nl12main_x1 ) ( * Nl12main_xtmp1 1 ) ) ) ) 0 ) ( = ( + ( * 1 lam15n1 ) ( * ( - 1 ) lam15n2 ) ( * ( - 1 ) lam15n3 ) ( * Nl2main_y1 lam15n4 ) ( - ( + ( + 0 Nl12main_y1 ) ( * Nl12main_tmp1 1 ) ) ) ) 0 ) ( = ( * Nl2main_tmp1 lam15n4 ) 0 ) ( = ( * Nl2main_xtmp1 lam15n4 ) 0 ) ) ))
(assert ( or ( and ( >= lam16n0 0 ) ( >= lam16n1 0 ) ( >= lam16n2 0 ) ( > ( + ( * 1 lam16n0 ) ( * 1 lam16n1 ) ( * Nl12CT1 lam16n2 ) ( - 1 ) ) 0 ) ( = ( * Nl12main_x1 lam16n2 ) 0 ) ( = ( + ( * 1 lam16n0 ) ( * ( - 1 ) lam16n1 ) ( * Nl12main_y1 lam16n2 ) ) 0 ) ( = ( + ( * ( - 1 ) lam16n1 ) ( * Nl12main_tmp1 lam16n2 ) ) 0 ) ( = ( + ( * ( - 1 ) lam16n0 ) ( * Nl12main_xtmp1 lam16n2 ) ) 0 ) ) ( and ( >= lam17n0 0 ) ( >= lam17n1 0 ) ( >= lam17n2 0 ) ( > ( + ( * 1 lam17n0 ) ( * 1 lam17n1 ) ( * Nl12CT1 lam17n2 ) ( - 1 ( + Nl12CT1 ( * Nl12main_xtmp1 0 ) ) ) ) 0 ) ( = ( + ( * Nl12main_x1 lam17n2 ) ( - ( + 0 Nl12main_x1 ) ) ) 0 ) ( = ( + ( * 1 lam17n0 ) ( * ( - 1 ) lam17n1 ) ( * Nl12main_y1 lam17n2 ) ( - ( + ( + 0 Nl12main_y1 ) ( * Nl12main_xtmp1 ( - 1 ) ) ) ) ) 0 ) ( = ( + ( * ( - 1 ) lam17n1 ) ( * Nl12main_tmp1 lam17n2 ) ( - ( + 0 Nl12main_tmp1 ) ) ) 0 ) ( = ( + ( * ( - 1 ) lam17n0 ) ( * Nl12main_xtmp1 lam17n2 ) ( - ( + 0 ( * Nl12main_xtmp1 1 ) ) ) ) 0 ) ) ))
(assert ( or ( and ( >= lam18n0 0 ) ( >= lam18n1 0 ) ( >= lam18n2 0 ) ( > ( + ( * 1 lam18n1 ) ( * Nl12CT1 lam18n2 ) ( - 1 ) ) 0 ) ( = ( * Nl12main_x1 lam18n2 ) 0 ) ( = ( + ( * ( - 1 ) lam18n0 ) ( * ( - 1 ) lam18n1 ) ( * Nl12main_y1 lam18n2 ) ) 0 ) ( = ( + ( * ( - 1 ) lam18n1 ) ( * Nl12main_tmp1 lam18n2 ) ) 0 ) ( = ( + ( * 1 lam18n0 ) ( * Nl12main_xtmp1 lam18n2 ) ) 0 ) ) ( and ( >= lam19n0 0 ) ( >= lam19n1 0 ) ( >= lam19n2 0 ) ( > ( + ( * 1 lam19n1 ) ( * Nl12CT1 lam19n2 ) ( - 1 ( + ( + Nl2CT1 ( * Nl2main_x1 0 ) ) ( * Nl2main_y1 0 ) ) ) ) 0 ) ( = ( * Nl12main_x1 lam19n2 ) 0 ) ( = ( + ( * ( - 1 ) lam19n0 ) ( * ( - 1 ) lam19n1 ) ( * Nl12main_y1 lam19n2 ) ) 0 ) ( = ( + ( * ( - 1 ) lam19n1 ) ( * Nl12main_tmp1 lam19n2 ) ( - ( + ( + 0 ( * Nl2main_x1 1 ) ) Nl2main_tmp1 ) ) ) 0 ) ( = ( + ( * 1 lam19n0 ) ( * Nl12main_xtmp1 lam19n2 ) ( - ( + ( + 0 ( * Nl2main_y1 1 ) ) Nl2main_xtmp1 ) ) ) 0 ) ) ))
(assert ( and ( or ( and ( >= lam0n0 0 ) ( >= lam0n1 0 ) ( >= lam0n2 0 ) ( >= lam0n3 0 ) ( > ( + ( * 1 lam0n1 ) ( * 1 lam0n2 ) ( * Nl2CT1 lam0n3 ) ( - 1 ) ) 0 ) ( = ( + ( * 1 lam0n0 ) ( * 1 lam0n1 ) ( * Nl2main_x1 lam0n3 ) ) 0 ) ( = ( + ( * 1 lam0n1 ) ( * 1 lam0n2 ) ( * Nl2main_y1 lam0n3 ) ) 0 ) ( = ( * Nl2main_tmp1 lam0n3 ) 0 ) ( = ( * Nl2main_xtmp1 lam0n3 ) 0 ) ) ( and ( >= lam22n0 0 ) ( >= lam22n1 0 ) ( >= lam22n2 0 ) ( >= lam22n3 0 ) ( > ( + ( * 1 lam22n1 ) ( * 1 lam22n2 ) ( * Nl2CT1 lam22n3 ) ( - 1 ( - ( + ( + ( + ( + RFN1_CT ( * RFN1_main_x 0 ) ) ( * RFN1_main_y 0 ) ) ( * RFN1_main_tmp 0 ) ) ( * RFN1_main_xtmp 0 ) ) RFN1_CT ) ) ) 0 ) ( = ( + ( * 1 lam22n0 ) ( * 1 lam22n1 ) ( * Nl2main_x1 lam22n3 ) ( - ( - ( + ( + 0 ( * RFN1_main_y 1 ) ) ( * RFN1_main_xtmp 1 ) ) RFN1_main_x ) ) ) 0 ) ( = ( + ( * 1 lam22n1 ) ( * 1 lam22n2 ) ( * Nl2main_y1 lam22n3 ) ( - ( - ( + ( + 0 ( * RFN1_main_x 1 ) ) ( * RFN1_main_tmp 1 ) ) RFN1_main_y ) ) ) 0 ) ( = ( + ( * Nl2main_tmp1 lam22n3 ) ( - ( - RFN1_main_tmp ) ) ) 0 ) ( = ( + ( * Nl2main_xtmp1 lam22n3 ) ( - ( - RFN1_main_xtmp ) ) ) 0 ) ) ) ( or ( and ( >= lam2n0 0 ) ( >= lam2n1 0 ) ( >= lam2n2 0 ) ( >= lam2n3 0 ) ( > ( + ( * 1 lam2n1 ) ( * 1 lam2n2 ) ( * Nl2CT1 lam2n3 ) ( - 1 ) ) 0 ) ( = ( + ( * ( - 1 ) lam2n0 ) ( * ( - 1 ) lam2n1 ) ( * Nl2main_x1 lam2n3 ) ) 0 ) ( = ( + ( * ( - 1 ) lam2n0 ) ( * 1 lam2n2 ) ( * Nl2main_y1 lam2n3 ) ) 0 ) ( = ( * Nl2main_tmp1 lam2n3 ) 0 ) ( = ( * Nl2main_xtmp1 lam2n3 ) 0 ) ) ( and ( >= lam25n0 0 ) ( >= lam25n1 0 ) ( >= lam25n2 0 ) ( >= lam25n3 0 ) ( > ( + ( * 1 lam25n1 ) ( * 1 lam25n2 ) ( * Nl2CT1 lam25n3 ) ( - 1 ( - ( + ( + ( + ( + RFN1_CT ( * RFN1_main_x 0 ) ) ( * RFN1_main_y 0 ) ) ( * RFN1_main_tmp 0 ) ) ( * RFN1_main_xtmp 0 ) ) RFN1_CT ) ) ) 0 ) ( = ( + ( * ( - 1 ) lam25n0 ) ( * ( - 1 ) lam25n1 ) ( * Nl2main_x1 lam25n3 ) ( - ( - ( + ( + 0 ( * RFN1_main_y 1 ) ) ( * RFN1_main_xtmp 1 ) ) RFN1_main_x ) ) ) 0 ) ( = ( + ( * ( - 1 ) lam25n0 ) ( * 1 lam25n2 ) ( * Nl2main_y1 lam25n3 ) ( - ( - ( + ( + 0 ( * RFN1_main_x 1 ) ) ( * RFN1_main_tmp 1 ) ) RFN1_main_y ) ) ) 0 ) ( = ( + ( * Nl2main_tmp1 lam25n3 ) ( - ( - RFN1_main_tmp ) ) ) 0 ) ( = ( + ( * Nl2main_xtmp1 lam25n3 ) ( - ( - RFN1_main_xtmp ) ) ) 0 ) ) ) ( or ( and ( >= lam4n0 0 ) ( >= lam4n1 0 ) ( >= lam4n2 0 ) ( >= lam4n3 0 ) ( > ( + ( * 1 lam4n0 ) ( * 1 lam4n1 ) ( * 1 lam4n2 ) ( * Nl2CT1 lam4n3 ) ( - 1 ) ) 0 ) ( = ( + ( * 1 lam4n0 ) ( * ( - 1 ) lam4n1 ) ( * Nl2main_x1 lam4n3 ) ) 0 ) ( = ( + ( * 1 lam4n0 ) ( * 1 lam4n2 ) ( * Nl2main_y1 lam4n3 ) ) 0 ) ( = ( * Nl2main_tmp1 lam4n3 ) 0 ) ( = ( * Nl2main_xtmp1 lam4n3 ) 0 ) ) ( and ( >= lam28n0 0 ) ( >= lam28n1 0 ) ( >= lam28n2 0 ) ( >= lam28n3 0 ) ( > ( + ( * 1 lam28n0 ) ( * 1 lam28n1 ) ( * 1 lam28n2 ) ( * Nl2CT1 lam28n3 ) ( - 1 ( - ( + ( + ( + ( + RFN1_CT ( * RFN1_main_x 0 ) ) ( * RFN1_main_y 0 ) ) ( * RFN1_main_tmp 0 ) ) ( * RFN1_main_xtmp 0 ) ) RFN1_CT ) ) ) 0 ) ( = ( + ( * 1 lam28n0 ) ( * ( - 1 ) lam28n1 ) ( * Nl2main_x1 lam28n3 ) ( - ( - ( + ( + 0 ( * RFN1_main_y 1 ) ) ( * RFN1_main_xtmp 1 ) ) RFN1_main_x ) ) ) 0 ) ( = ( + ( * 1 lam28n0 ) ( * 1 lam28n2 ) ( * Nl2main_y1 lam28n3 ) ( - ( - ( + ( + 0 ( * RFN1_main_x 1 ) ) ( * RFN1_main_tmp 1 ) ) RFN1_main_y ) ) ) 0 ) ( = ( + ( * Nl2main_tmp1 lam28n3 ) ( - ( - RFN1_main_tmp ) ) ) 0 ) ( = ( + ( * Nl2main_xtmp1 lam28n3 ) ( - ( - RFN1_main_xtmp ) ) ) 0 ) ) ) ( or ( and ( >= lam6n0 0 ) ( >= lam6n1 0 ) ( >= lam6n2 0 ) ( >= lam6n3 0 ) ( >= lam6n4 0 ) ( > ( + ( * 1 lam6n3 ) ( * Nl2CT1 lam6n4 ) ( - 1 ) ) 0 ) ( = ( + ( * 1 lam6n0 ) ( * 1 lam6n1 ) ( * ( - 1 ) lam6n2 ) ( * Nl2main_x1 lam6n4 ) ) 0 ) ( = ( + ( * ( - 1 ) lam6n1 ) ( * ( - 1 ) lam6n2 ) ( * ( - 1 ) lam6n3 ) ( * Nl2main_y1 lam6n4 ) ) 0 ) ( = ( * Nl2main_tmp1 lam6n4 ) 0 ) ( = ( * Nl2main_xtmp1 lam6n4 ) 0 ) ) ( and ( >= lam31n0 0 ) ( >= lam31n1 0 ) ( >= lam31n2 0 ) ( >= lam31n3 0 ) ( >= lam31n4 0 ) ( > ( + ( * 1 lam31n3 ) ( * Nl2CT1 lam31n4 ) ( - 1 ( - ( + ( + ( + ( + RFN1_CT ( * RFN1_main_x 0 ) ) ( * RFN1_main_y 0 ) ) ( * RFN1_main_tmp 0 ) ) ( * RFN1_main_xtmp 0 ) ) RFN1_CT ) ) ) 0 ) ( = ( + ( * 1 lam31n0 ) ( * 1 lam31n1 ) ( * ( - 1 ) lam31n2 ) ( * Nl2main_x1 lam31n4 ) ( - ( - ( + ( + 0 ( * RFN1_main_y 1 ) ) ( * RFN1_main_xtmp 1 ) ) RFN1_main_x ) ) ) 0 ) ( = ( + ( * ( - 1 ) lam31n1 ) ( * ( - 1 ) lam31n2 ) ( * ( - 1 ) lam31n3 ) ( * Nl2main_y1 lam31n4 ) ( - ( - ( + ( + 0 ( * RFN1_main_x 1 ) ) ( * RFN1_main_tmp 1 ) ) RFN1_main_y ) ) ) 0 ) ( = ( + ( * Nl2main_tmp1 lam31n4 ) ( - ( - RFN1_main_tmp ) ) ) 0 ) ( = ( + ( * Nl2main_xtmp1 lam31n4 ) ( - ( - RFN1_main_xtmp ) ) ) 0 ) ) ) ( or ( and ( >= lam8n0 0 ) ( >= lam8n1 0 ) ( >= lam8n2 0 ) ( >= lam8n3 0 ) ( > ( + ( * 1 lam8n1 ) ( * 1 lam8n2 ) ( * Nl2CT1 lam8n3 ) ( - 1 ) ) 0 ) ( = ( + ( * 1 lam8n0 ) ( * 1 lam8n1 ) ( * Nl2main_x1 lam8n3 ) ) 0 ) ( = ( + ( * 1 lam8n1 ) ( * ( - 1 ) lam8n2 ) ( * Nl2main_y1 lam8n3 ) ) 0 ) ( = ( * Nl2main_tmp1 lam8n3 ) 0 ) ( = ( * Nl2main_xtmp1 lam8n3 ) 0 ) ) ( and ( >= lam34n0 0 ) ( >= lam34n1 0 ) ( >= lam34n2 0 ) ( >= lam34n3 0 ) ( > ( + ( * 1 lam34n1 ) ( * 1 lam34n2 ) ( * Nl2CT1 lam34n3 ) ( - 1 ( - ( + ( + ( + ( + RFN1_CT ( * RFN1_main_x 0 ) ) ( * RFN1_main_y 0 ) ) ( * RFN1_main_tmp 0 ) ) ( * RFN1_main_xtmp 0 ) ) RFN1_CT ) ) ) 0 ) ( = ( + ( * 1 lam34n0 ) ( * 1 lam34n1 ) ( * Nl2main_x1 lam34n3 ) ( - ( - ( + ( + 0 ( * RFN1_main_y 1 ) ) ( * RFN1_main_xtmp 1 ) ) RFN1_main_x ) ) ) 0 ) ( = ( + ( * 1 lam34n1 ) ( * ( - 1 ) lam34n2 ) ( * Nl2main_y1 lam34n3 ) ( - ( - ( + ( + 0 ( * RFN1_main_x 1 ) ) ( * RFN1_main_tmp 1 ) ) RFN1_main_y ) ) ) 0 ) ( = ( + ( * Nl2main_tmp1 lam34n3 ) ( - ( - RFN1_main_tmp ) ) ) 0 ) ( = ( + ( * Nl2main_xtmp1 lam34n3 ) ( - ( - RFN1_main_xtmp ) ) ) 0 ) ) ) ( or ( and ( >= lam10n0 0 ) ( >= lam10n1 0 ) ( >= lam10n2 0 ) ( >= lam10n4 0 ) ( > ( + ( * 1 lam10n1 ) ( * 1 lam10n2 ) ( * Nl2CT1 lam10n4 ) ( - 1 ) ) 0 ) ( = ( + ( * ( - 1 ) lam10n0 ) ( * ( - 1 ) lam10n1 ) ( * 1 lam10n3 ) ( * Nl2main_x1 lam10n4 ) ) 0 ) ( = ( + ( * ( - 1 ) lam10n0 ) ( * ( - 1 ) lam10n2 ) ( * ( - 1 ) lam10n3 ) ( * Nl2main_y1 lam10n4 ) ) 0 ) ( = ( * Nl2main_tmp1 lam10n4 ) 0 ) ( = ( * Nl2main_xtmp1 lam10n4 ) 0 ) ) ( and ( >= lam37n0 0 ) ( >= lam37n1 0 ) ( >= lam37n2 0 ) ( >= lam37n4 0 ) ( > ( + ( * 1 lam37n1 ) ( * 1 lam37n2 ) ( * Nl2CT1 lam37n4 ) ( - 1 ( - ( + ( + ( + ( + RFN1_CT ( * RFN1_main_x 0 ) ) ( * RFN1_main_y 0 ) ) ( * RFN1_main_tmp 0 ) ) ( * RFN1_main_xtmp 0 ) ) RFN1_CT ) ) ) 0 ) ( = ( + ( * ( - 1 ) lam37n0 ) ( * ( - 1 ) lam37n1 ) ( * 1 lam37n3 ) ( * Nl2main_x1 lam37n4 ) ( - ( - ( + ( + 0 ( * RFN1_main_y 1 ) ) ( * RFN1_main_xtmp 1 ) ) RFN1_main_x ) ) ) 0 ) ( = ( + ( * ( - 1 ) lam37n0 ) ( * ( - 1 ) lam37n2 ) ( * ( - 1 ) lam37n3 ) ( * Nl2main_y1 lam37n4 ) ( - ( - ( + ( + 0 ( * RFN1_main_x 1 ) ) ( * RFN1_main_tmp 1 ) ) RFN1_main_y ) ) ) 0 ) ( = ( + ( * Nl2main_tmp1 lam37n4 ) ( - ( - RFN1_main_tmp ) ) ) 0 ) ( = ( + ( * Nl2main_xtmp1 lam37n4 ) ( - ( - RFN1_main_xtmp ) ) ) 0 ) ) ) ( or ( and ( >= lam12n0 0 ) ( >= lam12n1 0 ) ( >= lam12n2 0 ) ( >= lam12n3 0 ) ( >= lam12n4 0 ) ( > ( + ( * 1 lam12n1 ) ( * 1 lam12n2 ) ( * 1 lam12n3 ) ( * Nl2CT1 lam12n4 ) ( - 1 ) ) 0 ) ( = ( + ( * ( - 1 ) lam12n0 ) ( * 1 lam12n1 ) ( * ( - 1 ) lam12n2 ) ( * Nl2main_x1 lam12n4 ) ) 0 ) ( = ( + ( * ( - 1 ) lam12n0 ) ( * ( - 1 ) lam12n1 ) ( * ( - 1 ) lam12n3 ) ( * Nl2main_y1 lam12n4 ) ) 0 ) ( = ( * Nl2main_tmp1 lam12n4 ) 0 ) ( = ( * Nl2main_xtmp1 lam12n4 ) 0 ) ) ( and ( >= lam40n0 0 ) ( >= lam40n1 0 ) ( >= lam40n2 0 ) ( >= lam40n3 0 ) ( >= lam40n4 0 ) ( > ( + ( * 1 lam40n1 ) ( * 1 lam40n2 ) ( * 1 lam40n3 ) ( * Nl2CT1 lam40n4 ) ( - 1 ( - ( + ( + RFN1_CT ( * RFN1_main_tmp 0 ) ) ( * RFN1_main_xtmp 0 ) ) RFN1_CT ) ) ) 0 ) ( = ( + ( * ( - 1 ) lam40n0 ) ( * 1 lam40n1 ) ( * ( - 1 ) lam40n2 ) ( * Nl2main_x1 lam40n4 ) ( - ( - ( + ( + 0 RFN1_main_x ) ( * RFN1_main_xtmp 1 ) ) RFN1_main_x ) ) ) 0 ) ( = ( + ( * ( - 1 ) lam40n0 ) ( * ( - 1 ) lam40n1 ) ( * ( - 1 ) lam40n3 ) ( * Nl2main_y1 lam40n4 ) ( - ( - ( + ( + 0 RFN1_main_y ) ( * RFN1_main_tmp 1 ) ) RFN1_main_y ) ) ) 0 ) ( = ( + ( * Nl2main_tmp1 lam40n4 ) ( - ( - RFN1_main_tmp ) ) ) 0 ) ( = ( + ( * Nl2main_xtmp1 lam40n4 ) ( - ( - RFN1_main_xtmp ) ) ) 0 ) ) ) ( or ( and ( >= lam14n0 0 ) ( >= lam14n1 0 ) ( >= lam14n2 0 ) ( >= lam14n3 0 ) ( >= lam14n4 0 ) ( > ( + ( * 1 lam14n0 ) ( * 1 lam14n1 ) ( * 1 lam14n2 ) ( * 2 lam14n3 ) ( * Nl2CT1 lam14n4 ) ( - 1 ) ) 0 ) ( = ( + ( * ( - 1 ) lam14n0 ) ( * ( - 1 ) lam14n1 ) ( * ( - 1 ) lam14n3 ) ( * Nl2main_x1 lam14n4 ) ) 0 ) ( = ( + ( * 1 lam14n1 ) ( * ( - 1 ) lam14n2 ) ( * ( - 1 ) lam14n3 ) ( * Nl2main_y1 lam14n4 ) ) 0 ) ( = ( * Nl2main_tmp1 lam14n4 ) 0 ) ( = ( * Nl2main_xtmp1 lam14n4 ) 0 ) ) ( and ( >= lam43n0 0 ) ( >= lam43n1 0 ) ( >= lam43n2 0 ) ( >= lam43n3 0 ) ( >= lam43n4 0 ) ( > ( + ( * 1 lam43n0 ) ( * 1 lam43n1 ) ( * 1 lam43n2 ) ( * 2 lam43n3 ) ( * Nl2CT1 lam43n4 ) ( - 1 ( - ( + ( + RFN1_CT ( * RFN1_main_tmp 0 ) ) ( * RFN1_main_xtmp 0 ) ) RFN1_CT ) ) ) 0 ) ( = ( + ( * ( - 1 ) lam43n0 ) ( * ( - 1 ) lam43n1 ) ( * ( - 1 ) lam43n3 ) ( * Nl2main_x1 lam43n4 ) ( - ( - ( + ( + 0 RFN1_main_x ) ( * RFN1_main_xtmp 1 ) ) RFN1_main_x ) ) ) 0 ) ( = ( + ( * 1 lam43n1 ) ( * ( - 1 ) lam43n2 ) ( * ( - 1 ) lam43n3 ) ( * Nl2main_y1 lam43n4 ) ( - ( - ( + ( + 0 RFN1_main_y ) ( * RFN1_main_tmp 1 ) ) RFN1_main_y ) ) ) 0 ) ( = ( + ( * Nl2main_tmp1 lam43n4 ) ( - ( - RFN1_main_tmp ) ) ) 0 ) ( = ( + ( * Nl2main_xtmp1 lam43n4 ) ( - ( - RFN1_main_xtmp ) ) ) 0 ) ) ) ( or ( and ( >= lam16n0 0 ) ( >= lam16n1 0 ) ( >= lam16n2 0 ) ( > ( + ( * 1 lam16n0 ) ( * 1 lam16n1 ) ( * Nl12CT1 lam16n2 ) ( - 1 ) ) 0 ) ( = ( * Nl12main_x1 lam16n2 ) 0 ) ( = ( + ( * 1 lam16n0 ) ( * ( - 1 ) lam16n1 ) ( * Nl12main_y1 lam16n2 ) ) 0 ) ( = ( + ( * ( - 1 ) lam16n1 ) ( * Nl12main_tmp1 lam16n2 ) ) 0 ) ( = ( + ( * ( - 1 ) lam16n0 ) ( * Nl12main_xtmp1 lam16n2 ) ) 0 ) ) ( and ( >= lam46n0 0 ) ( >= lam46n1 0 ) ( >= lam46n2 0 ) ( > ( + ( * 1 lam46n0 ) ( * 1 lam46n1 ) ( * Nl12CT1 lam46n2 ) ( - 1 ( - ( + RFN1_CT ( * RFN1_main_xtmp 0 ) ) RFN1_CT ) ) ) 0 ) ( = ( + ( * Nl12main_x1 lam46n2 ) ( - ( - ( + 0 RFN1_main_x ) RFN1_main_x ) ) ) 0 ) ( = ( + ( * 1 lam46n0 ) ( * ( - 1 ) lam46n1 ) ( * Nl12main_y1 lam46n2 ) ( - ( - ( + ( + 0 RFN1_main_y ) ( * RFN1_main_xtmp ( - 1 ) ) ) RFN1_main_y ) ) ) 0 ) ( = ( + ( * ( - 1 ) lam46n1 ) ( * Nl12main_tmp1 lam46n2 ) ( - ( - ( + 0 RFN1_main_tmp ) RFN1_main_tmp ) ) ) 0 ) ( = ( + ( * ( - 1 ) lam46n0 ) ( * Nl12main_xtmp1 lam46n2 ) ( - ( - ( + 0 ( * RFN1_main_xtmp 1 ) ) RFN1_main_xtmp ) ) ) 0 ) ) ) ( or ( and ( >= lam18n0 0 ) ( >= lam18n1 0 ) ( >= lam18n2 0 ) ( > ( + ( * 1 lam18n1 ) ( * Nl12CT1 lam18n2 ) ( - 1 ) ) 0 ) ( = ( * Nl12main_x1 lam18n2 ) 0 ) ( = ( + ( * ( - 1 ) lam18n0 ) ( * ( - 1 ) lam18n1 ) ( * Nl12main_y1 lam18n2 ) ) 0 ) ( = ( + ( * ( - 1 ) lam18n1 ) ( * Nl12main_tmp1 lam18n2 ) ) 0 ) ( = ( + ( * 1 lam18n0 ) ( * Nl12main_xtmp1 lam18n2 ) ) 0 ) ) ( and ( >= lam49n0 0 ) ( >= lam49n1 0 ) ( >= lam49n2 0 ) ( > ( + ( * 1 lam49n1 ) ( * Nl12CT1 lam49n2 ) ( - 1 ( - ( + ( + RFN1_CT ( * RFN1_main_x 0 ) ) ( * RFN1_main_y 0 ) ) RFN1_CT ) ) ) 0 ) ( = ( + ( * Nl12main_x1 lam49n2 ) ( - ( - RFN1_main_x ) ) ) 0 ) ( = ( + ( * ( - 1 ) lam49n0 ) ( * ( - 1 ) lam49n1 ) ( * Nl12main_y1 lam49n2 ) ( - ( - RFN1_main_y ) ) ) 0 ) ( = ( + ( * ( - 1 ) lam49n1 ) ( * Nl12main_tmp1 lam49n2 ) ( - ( - ( + ( + 0 ( * RFN1_main_x 1 ) ) RFN1_main_tmp ) RFN1_main_tmp ) ) ) 0 ) ( = ( + ( * 1 lam49n0 ) ( * Nl12main_xtmp1 lam49n2 ) ( - ( - ( + ( + 0 ( * RFN1_main_y 1 ) ) RFN1_main_xtmp ) RFN1_main_xtmp ) ) ) 0 ) ) ) ))
(assert ( and ( and ( and ( >= lam23n0 0 ) ( >= lam23n1 0 ) ( >= lam23n2 0 ) ( >= lam23n3 0 ) ( > ( + ( * 1 lam23n1 ) ( * 1 lam23n2 ) ( * Nl2CT1 lam23n3 ) ( - 1 ( - RFN1_CT ) ) ) 0 ) ( = ( + ( * ( - 1 ) lam23n0 ) ( * ( - 1 ) lam23n1 ) ( * Nl2main_x1 lam23n3 ) ( - ( - RFN1_main_x ) ) ) 0 ) ( = ( + ( * ( - 1 ) lam23n0 ) ( * 1 lam23n2 ) ( * Nl2main_y1 lam23n3 ) ( - ( - RFN1_main_y ) ) ) 0 ) ( = ( + ( * Nl2main_tmp1 lam23n3 ) ( - ( - RFN1_main_tmp ) ) ) 0 ) ( = ( + ( * Nl2main_xtmp1 lam23n3 ) ( - ( - RFN1_main_xtmp ) ) ) 0 ) ) ( and ( >= lam24n0 0 ) ( >= lam24n1 0 ) ( >= lam24n2 0 ) ( >= lam24n3 0 ) ( > ( + ( * 1 lam24n1 ) ( * 1 lam24n2 ) ( * Nl2CT1 lam24n3 ) ( - 1 ( + ( - ( + ( + ( + ( + RFN1_CT ( * RFN1_main_x 0 ) ) ( * RFN1_main_y 0 ) ) ( * RFN1_main_tmp 0 ) ) ( * RFN1_main_xtmp 0 ) ) RFN1_CT ) 1 ) ) ) 0 ) ( = ( + ( * ( - 1 ) lam24n0 ) ( * ( - 1 ) lam24n1 ) ( * Nl2main_x1 lam24n3 ) ( - ( - ( + ( + 0 ( * RFN1_main_y 1 ) ) ( * RFN1_main_xtmp 1 ) ) RFN1_main_x ) ) ) 0 ) ( = ( + ( * ( - 1 ) lam24n0 ) ( * 1 lam24n2 ) ( * Nl2main_y1 lam24n3 ) ( - ( - ( + ( + 0 ( * RFN1_main_x 1 ) ) ( * RFN1_main_tmp 1 ) ) RFN1_main_y ) ) ) 0 ) ( = ( + ( * Nl2main_tmp1 lam24n3 ) ( - ( - RFN1_main_tmp ) ) ) 0 ) ( = ( + ( * Nl2main_xtmp1 lam24n3 ) ( - ( - RFN1_main_xtmp ) ) ) 0 ) ) ) ( and ( >= lam50n0 0 ) ( >= lam50n1 0 ) ( >= lam50n2 0 ) ( >= lam50n3 0 ) ( > ( + ( * 1 lam50n1 ) ( * 1 lam50n2 ) ( * ( + ( - Nl2CT1 ) 1 ) lam50n3 ) ( - 1 ) ) 0 ) ( = ( + ( * ( - 1 ) lam50n0 ) ( * ( - 1 ) lam50n1 ) ( * ( - Nl2main_x1 ) lam50n3 ) ) 0 ) ( = ( + ( * ( - 1 ) lam50n0 ) ( * 1 lam50n2 ) ( * ( - Nl2main_y1 ) lam50n3 ) ) 0 ) ( = ( * ( - Nl2main_tmp1 ) lam50n3 ) 0 ) ( = ( * ( - Nl2main_xtmp1 ) lam50n3 ) 0 ) ) ))
(check-sat)
(exit)
